results/x-10M/X-n143-k7.vrp_seed-1.vrp.sol
Route #1: 78 17 2 41 86 8 43 114 110 53 102 6 31 98 79 60 72 111 1 107 5 93 116 136
Route #2: 130 71 99 24 106 27 15 141 140 69 131 42 29 39 80 119 22 77 122 37 14 82 142 35 25
Route #3: 36 16 32 7 19 97 120 85 91 56 83 28 133 18 90 45 89 12 54 118 128
Route #4: 115 124 70 40 59 135 58 67 46 101 66 20 52 88 51 49 50 9 109
Route #5: 73 57 95 139 55 137 123 125 33 21 23 132 104 62 96 47 81 100 11 74 44 64 61 65
Route #6: 117 108 92 134 38 103 10 113 63 112 26 75 94 3 76 129 105 138 34 121 30 87 48 4
Route #7: 126 13 127 84 68
Cost 15700.000000